100
1000
200
0 0
34 26
34 26
34 26
34 26
34 26
34 26
34 26
34 26
34 26
34 26
34 26
34 26
34 26
34 26
34 26
34 26
34 26
34 26
34 26
34 26
-28 20
-28 20
-28 20
-28 20
-28 20
-28 20
-28 20
-28 20
-28 20
-28 20
-28 20
-28 20
-28 20
-28 20
-28 20
-28 20
-28 20
-28 20
-28 20
-28 20
-19 -37
-19 -37
-19 -37
-19 -37
-19 -37
-19 -37
-19 -37
-19 -37
-19 -37
-19 -37
-19 -37
-19 -37
-19 -37
-19 -37
-19 -37
-19 -37
-19 -37
-19 -37
-19 -37
-19 -37
-16 18
-16 18
-16 18
-16 18
-16 18
-16 18
-16 18
-16 18
-16 18
-16 18
-16 18
-16 18
-16 18
-16 18
-16 18
-16 18
-16 18
-16 18
-16 18
-16 18
-19 24
-19 24
-19 24
-19 24
-19 24
-19 24
-19 24
-19 24
-19 24
-19 24
-19 24
-19 24
-19 24
-19 24
-19 24
-19 24
-19 24
-19 24
-19 24
-19 24
32 -19
-32 23
-1 10
-19 4
-11 -34
33 -4
17 -17
-28 15
27 -8
-36 33
12 -33
-13 -40
-13 -25
34 -40
-31 -29
-10 -10
17 7
34 -26
-15 14
19 -4
32 -19
-32 23
-1 10
-19 4
-11 -34
33 -4
17 -17
-28 15
27 -8
-36 33
12 -33
-13 -40
-13 -25
34 -40
-31 -29
-10 -10
17 7
34 -26
-15 14
19 -4
32 -19
-32 23
-1 10
-19 4
-11 -34
33 -4
17 -17
-28 15
27 -8
-36 33
12 -33
-13 -40
-13 -25
34 -40
-31 -29
-10 -10
17 7
34 -26
-15 14
19 -4
32 -19
-32 23
-1 10
-19 4
-11 -34
33 -4
17 -17
-28 15
27 -8
-36 33
12 -33
-13 -40
-13 -25
34 -40
-31 -29
-10 -10
17 7
34 -26
-15 14
19 -4
32 -19
-32 23
-1 10
-19 4
-11 -34
33 -4
17 -17
-28 15
27 -8
-36 33
12 -33
-13 -40
-13 -25
34 -40
-31 -29
-10 -10
17 7
34 -26
-15 14
19 -4
0 0 
51
56
55
59
52
52
53
54
54
57
55
55
57
53
56
56
51
59
52
54
57
56
51
57
59
57
56
57
57
54
56
54
56
55
53
53
53
53
56
59
53
52
52
57
56
55
56
53
54
55
53
54
55
53
59
56
57
55
56
56
56
56
52
54
56
55
56
59
54
54
54
56
55
51
57
60
56
56
52
59
57
56
52
51
52
56
59
54
55
56
57
59
59
60
53
57
51
52
59
59
51
56
55
59
52
52
53
54
54
57
55
55
57
53
56
56
51
59
52
54
57
56
51
57
59
57
56
57
57
54
56
54
56
55
53
53
53
53
56
59
53
52
52
57
56
55
56
53
54
55
53
54
55
53
59
56
57
55
56
56
56
56
52
54
56
55
56
59
54
54
54
56
55
51
57
60
56
56
52
59
57
56
52
51
52
56
59
54
55
56
57
59
59
60
53
57
51
52
59
59
